NAME: berlin52-12-2
TYPE: TSP
COMMENT: min_cost = 4335.72
DIMENSION: 12
EDGE_WEIGHT_TYPE: EUC_2D
NODE_COORD_SECTION
1 975 580
2 685 610
3 1170 65
4 420 555
5 700 500
6 25 185
7 875 920
8 880 660
9 575 665
10 300 465
11 415 635
12 1605 620
EOF
